c turning on binary mode checking
c parsing input formula with 259840 variables and 1039924 clauses
c finished parsing, read 23766265 bytes from proof file
c detected empty clause; start verification via backward checking
c 12795 of 1039924 clauses in core                            
c 16125 of 607417 lemmas in core using 99714 resolution steps
c 0 RAT lemmas in core; 738 redundant literals in core lemmas
s VERIFIED
c verification time: 3.230 seconds
